<<<<<<< HEAD
p wcnf 5 12 6
c ===== Hard Clauses =====
6 1 2 0
6 1 3 0
6 1 4 0
6 1 5 0
6 2 3 0
6 3 4 0
6 4 5 0
c ===== Soft Clauses (Sum weights: 5) =====
1 -1 0
1 -2 0
1 -3 0
1 -4 0
1 -5 0
=======
p wcnf 10 40 11
c ===== Hard Clauses =====
11 -1 -3 0
11 -1 -4 0
11 -1 -7 0
11 -1 -8 0
11 -1 -9 0
11 -1 -10 0
11 -2 -4 0
11 -2 -5 0
11 -2 -6 0
11 -2 -8 0
11 -2 -9 0
11 -2 -10 0
11 -3 -5 0
11 -3 -6 0
11 -3 -7 0
11 -3 -9 0
11 -3 -10 0
11 -4 -6 0
11 -4 -7 0
11 -4 -8 0
11 -4 -10 0
11 -5 -6 0
11 -5 -7 0
11 -5 -8 0
11 -5 -9 0
11 -6 -7 0
11 -6 -10 0
11 -7 -8 0
11 -8 -9 0
11 -9 -10 0
c ===== Soft Clauses (Sum weights: 10) =====
1 1 0
1 2 0
1 3 0
1 4 0
1 5 0
1 6 0
1 7 0
1 8 0
1 9 0
1 10 0
>>>>>>> master
